1468.80 0
0 86 87 92 96 102 101 99 100 116 67 70 69 103 104 107 106 105 0
0 88 111 112 84 85 89 90 94 97 98 71 74 75 72 78 76 73 0
0 113 83 18 114 118 108 109 115 110 68 77 79 80 53 55 58 56 0
0 52 54 57 60 63 66 64 62 61 65 59 40 43 45 39 0
0 93 38 42 48 51 50 49 47 46 44 41 37 8 9 7 6 5 0
0 91 21 20 16 12 13 11 10 4 3 2 15 17 23 26 29 35 32 28 0
0 95 19 25 31 36 34 33 30 27 24 22 14 1 117 81 82 119 120 0